p cnf 7230 17
-4998 -5359 -5627 0
4996 5361 -5625 0
4994 5371 -5623 0
4998 -5628 0
-4996 -5626 0
-4994 -5624 0
5627 5628 0
5625 5626 0
5623 5624 0
5359 -5628 0
-5361 -5626 0
-5371 -5624 0
-4412 -5375 5630 0
5621 5622 0
-5621 -5622 0
5375 -5630 0
4412 -5630 0
